\ Model pbUFLPnldep_5_5_grb.lp
\ LP format - for model browsing. Use MPS format to capture full model detail.
Minimize
  __pwl(w(1)) + __pwl(w(2)) + __pwl(w(3)) + __pwl(w(4)) + __pwl(w(5))
   + 260 x(1,1) + 239 x(1,2) + 418 x(1,3) + 557 x(1,4) + 346 x(1,5)
   + 161 x(2,1) + 288 x(2,2) + 568 x(2,3) + 379 x(2,4) + 392 x(2,5)
   + 672 x(3,1) + 268 x(3,2) + 122 x(3,3) + 295 x(3,4) + 344 x(3,5)
   + 143 x(4,1) + 393 x(4,2) + 29 x(4,3) + 656 x(4,4) + 654 x(4,5)
   + 235 x(5,1) + 329 x(5,2) + 640 x(5,3) + 517 x(5,4) + 329 x(5,5)
Subject To
 R0: x(1,1) + x(2,1) + x(3,1) + x(4,1) + x(5,1) = 1
 R1: - y(1) + x(1,1) <= 0
 R2: - y(2) + x(2,1) <= 0
 R3: - y(3) + x(3,1) <= 0
 R4: - y(4) + x(4,1) <= 0
 R5: - y(5) + x(5,1) <= 0
 R6: x(1,2) + x(2,2) + x(3,2) + x(4,2) + x(5,2) = 1
 R7: - y(1) + x(1,2) <= 0
 R8: - y(2) + x(2,2) <= 0
 R9: - y(3) + x(3,2) <= 0
 R10: - y(4) + x(4,2) <= 0
 R11: - y(5) + x(5,2) <= 0
 R12: x(1,3) + x(2,3) + x(3,3) + x(4,3) + x(5,3) = 1
 R13: - y(1) + x(1,3) <= 0
 R14: - y(2) + x(2,3) <= 0
 R15: - y(3) + x(3,3) <= 0
 R16: - y(4) + x(4,3) <= 0
 R17: - y(5) + x(5,3) <= 0
 R18: x(1,4) + x(2,4) + x(3,4) + x(4,4) + x(5,4) = 1
 R19: - y(1) + x(1,4) <= 0
 R20: - y(2) + x(2,4) <= 0
 R21: - y(3) + x(3,4) <= 0
 R22: - y(4) + x(4,4) <= 0
 R23: - y(5) + x(5,4) <= 0
 R24: x(1,5) + x(2,5) + x(3,5) + x(4,5) + x(5,5) = 1
 R25: - y(1) + x(1,5) <= 0
 R26: - y(2) + x(2,5) <= 0
 R27: - y(3) + x(3,5) <= 0
 R28: - y(4) + x(4,5) <= 0
 R29: - y(5) + x(5,5) <= 0
 R30: w(1) - 49 x(1,1) - 29 x(1,2) - 23 x(1,3) - 40 x(1,4) - 18 x(1,5) = 0
 R31: w(2) - 49 x(2,1) - 29 x(2,2) - 23 x(2,3) - 40 x(2,4) - 18 x(2,5) = 0
 R32: w(3) - 49 x(3,1) - 29 x(3,2) - 23 x(3,3) - 40 x(3,4) - 18 x(3,5) = 0
 R33: w(4) - 49 x(4,1) - 29 x(4,2) - 23 x(4,3) - 40 x(4,4) - 18 x(4,5) = 0
 R34: w(5) - 49 x(5,1) - 29 x(5,2) - 23 x(5,3) - 40 x(5,4) - 18 x(5,5) = 0
Bounds
 y(1) free
 y(2) free
 y(3) free
 y(4) free
 y(5) free
Binaries
 y(1) y(2) y(3) y(4) y(5)
PWLObj
 w(1): (0, 0) (0, 0) (0, 3.004393876805346) 
  (3.867311666138705, 8.499463043796384) 
  (3.867311666138705, 8.499463045466563) 
  (6.51287726047656, 14.64514836292233) 
  (6.51287726047656, 12.81467756100202) 
  (12.83423338422765, 32.22261633389463) 
  (12.83423338422765, 32.021328291099) 
  (50.45846010870799, 161.6093845295206) 
  (50.45846010870799, 161.6093845295207) 
  (74.13605266743031, 175.4542143396453) 
  (74.13605266743031, 147.0052401165426) (159, 287.670614551827)
 w(2): (0, 0) (0, 0) (0, 2.062026095861013) 
  (12.83423338422776, 20.78160820458011) 
  (12.83423338422776, 27.70882061562162) 
  (74.13605266743039, 158.23974057257) 
  (74.13605266743039, 155.7672239937182) 
  (97.79276769075105, 161.1594287607081) 
  (97.79276769075105, 161.1594287732363) 
  (111.2638656956894, 181.695650963597) 
  (111.2638656956894, 177.9967785852282) (159, 308.6011063208537)
 w(3): (0, 0) (0, 0) (0, 4.13719812543687) 
  (3.867311666138709, 11.70417861768683) 
  (3.867311666138709, 11.70417861998674) 
  (6.512877260476601, 20.16708954894237) 
  (6.512877260476601, 17.64644123154389) 
  (12.83423338422775, 44.37212741060941) 
  (12.83423338422775, 44.47530442762168) 
  (74.13605266743036, 253.9899020655265) 
  (74.13605266743036, 238.1154793149958) 
  (111.2638656956894, 276.1807658773292) 
  (111.2638656956894, 285.7018356909404) (159, 495.3342598271022)
 w(4): (0, 0) (0, 0) (0, 3.309748892719587) 
  (12.83423338422775, 33.35646667231959) 
  (12.83423338422775, 43.78036601398819) 
  (21.4320971307116, 85.51755899877969) 
  (21.4320971307116, 86.87499322905813) 
  (40.3521655693429, 184.6608487435959) 
  (40.3521655693429, 184.6608487435959) 
  (50.45846010870806, 220.1307313947303) 
  (50.45846010870806, 222.544070499668) 
  (74.13605266743036, 241.6090820414786) 
  (74.13605266743036, 238.1154793149958) 
  (111.2638656956894, 276.1807658773292) 
  (111.2638656956894, 285.7018356909404) (159, 495.3342598271022)
 w(5): (0, 0) (0, 0) (0, 4.443654293774485) 
  (6.512877260476583, 20.30741252836374) 
  (6.512877260476583, 20.30741252836391) 
  (12.8342333842277, 51.06316249633603) 
  (12.8342333842277, 51.18189795242171) 
  (74.13605266743033, 292.2899666627088) 
  (74.13605266743033, 232.9591236819535) (159, 455.8714656832225)
End
